30
5
369685
0
0
250 165 186 267 217
1
0
157 121 146 100 113
2
0
99 83 75 87 88
3
0
44 62 75 78 48
4
0
41 21 20 26 32
5
0
90 57 71 59 59
6
0
16 41 36 22 32
7
0
29 31 23 35 32
8
0
29 24 32 23 33
9
0
3 3 2 4 4
10
0
149 153 177 150 142
11
0
97 92 56 77 79
12
0
70 53 72 62 59
13
0
13 18 18 17 20
14
0
3 3 7 3 2
15
0
126 113 102 134 115
16
0
2 1 2 2 3
17
0
16 18 24 37 22
18
0
72 85 64 77 80
19
0
20 25 18 13 25
20
0
51 43 53 35 33
21
0
97 90 81 86 91
22
0
20 26 30 33 32
23
0
15 10 13 22 14
24
0
159 112 105 143 146
25
0
44 27 30 29 25
26
0
24 26 25 36 22
27
0
76 71 71 37 60
28
0
43 40 38 46 27
29
0
73 111 77 71 74
